
Gurobi 9.1.2 (linux64) logging started Tue Aug  8 22:04:50 2023

Changed value of parameter LogFile to max-ls_r=('5', '1').log
   Prev:   Default: 
Changed value of parameter MIPFocus to 1
   Prev: 0  Min: 0  Max: 3  Default: 0
Changed value of parameter Threads to 32
   Prev: 0  Min: 0  Max: 1024  Default: 0
Changed value of parameter TimeLimit to 3600.0
   Prev: inf  Min: 0.0  Max: inf  Default: inf
Warning: variable name "X[('7', '1'),('3', '1')]" has a space
Warning: constraint name "flow-constr-t0-v('5', '0')" has a space
Warning: to let Gurobi read it back, use rlp format
Gurobi Optimizer version 9.1.2 build v9.1.2rc0 (linux64)
Thread count: 16 physical cores, 32 logical processors, using up to 32 threads
Optimize a model with 2947 rows, 2688 columns and 10296 nonzeros
Model fingerprint: 0xdec683b6
Variable types: 256 continuous, 2432 integer (2432 binary)
Coefficient statistics:
  Matrix range     [1e+00, 7e+04]
  Objective range  [2e-01, 2e-01]
  Bounds range     [1e+00, 3e+04]
  RHS range        [1e+00, 7e+04]
Presolve removed 295 rows and 296 columns
Presolve time: 0.03s

Explored 0 nodes (0 simplex iterations) in 0.03 seconds
Thread count was 1 (of 32 available processors)

Solution count 0

Solve interrupted
Best objective -, best bound -, gap -

Gurobi 9.1.2 (linux64) logging started Thu Aug 10 03:41:53 2023

Changed value of parameter LogFile to max-ls_r=('5', '1').log
   Prev:   Default: 
Changed value of parameter MIPFocus to 1
   Prev: 0  Min: 0  Max: 3  Default: 0
Changed value of parameter Threads to 32
   Prev: 0  Min: 0  Max: 1024  Default: 0
Changed value of parameter TimeLimit to 3600.0
   Prev: inf  Min: 0.0  Max: inf  Default: inf
Warning: variable name "X[('6', '6'),('7', '6')]" has a space
Warning: constraint name "flow-constr-t0-v('6', '3')" has a space
Warning: to let Gurobi read it back, use rlp format
Gurobi Optimizer version 9.1.2 build v9.1.2rc0 (linux64)
Thread count: 16 physical cores, 32 logical processors, using up to 32 threads
Optimize a model with 2947 rows, 2688 columns and 10296 nonzeros
Model fingerprint: 0xb9f64a23
Variable types: 256 continuous, 2432 integer (2432 binary)
Coefficient statistics:
  Matrix range     [1e+00, 7e+04]
  Objective range  [2e-01, 2e-01]
  Bounds range     [1e+00, 3e+04]
  RHS range        [1e+00, 7e+04]
Presolve removed 295 rows and 296 columns
Presolve time: 0.04s
Presolved: 2652 rows, 2392 columns, 18107 nonzeros
Variable types: 256 continuous, 2136 integer (2136 binary)

Root relaxation: objective 6.400000e+01, 151 iterations, 0.00 seconds

    Nodes    |    Current Node    |     Objective Bounds      |     Work
 Expl Unexpl |  Obj  Depth IntInf | Incumbent    BestBd   Gap | It/Node Time

     0     0   64.00000    0   16          -   64.00000      -     -    0s
H    0     0                    4163.9999998   64.00000  98.5%     -    0s
H    0     0                    4163.4999998   64.00000  98.5%     -    0s
H    0     0                     129.7500000   64.00000  50.7%     -    0s
H    0     0                     129.0000000   64.00000  50.4%     -    0s
     0     0   64.00000    0   37  129.00000   64.00000  50.4%     -    0s
H    0     0                      93.1250000   64.00000  31.3%     -    0s
     0     0   64.00000    0   42   93.12500   64.00000  31.3%     -    0s
     0     0   64.00000    0   20   93.12500   64.00000  31.3%     -    0s
H    0     0                      88.7916667   64.00000  27.9%     -    0s
     0     0   64.00000    0   20   88.79167   64.00000  27.9%     -    0s
     0     0   64.00000    0   22   88.79167   64.00000  27.9%     -    0s
H    0     0                      77.0000000   64.00000  16.9%     -    0s
H    0     0                      76.5000000   64.00000  16.3%     -    0s
     0     0   64.00000    0   22   76.50000   64.00000  16.3%     -    0s
     0     0   64.00000    0   16   76.50000   64.00000  16.3%     -    0s
H    0     0                      73.7500000   64.00000  13.2%     -    0s
     0     0   64.00000    0   18   73.75000   64.00000  13.2%     -    0s
     0     0   64.00000    0    8   73.75000   64.00000  13.2%     -    1s
H    0     0                      69.7500000   64.00000  8.24%     -    1s
     0     2   64.00000    0    8   69.75000   64.00000  8.24%     -    1s
H   32    64                      69.5000000   64.00000  7.91%   9.6    1s
H   36    64                      69.2500000   64.00000  7.58%   8.8    1s
H   95   128                      69.0000000   64.00000  7.25%   5.7    4s
H   96   128                      67.0000000   64.00000  4.48%   5.7    4s
H   99   128                      66.5000000   64.00000  3.76%   5.5    4s
   243   276   64.00000   12   14   66.50000   64.00000  3.76%  22.0    5s
H 2336  3816                      66.4999564   64.00000  3.76%  13.5    8s
H 3273  3789                      66.1500000   64.00000  3.25%  13.0    8s
H 3275  3568                      65.9000000   64.00000  2.88%  13.2    8s
H 4273  6989                      65.5000000   64.00000  2.29%  14.7    9s
H 4452  6951                      64.7500000   64.00000  1.16%  15.0    9s
H 8658  6844                      64.6666667   64.00000  1.03%  16.6   11s
H 8659  1796                      64.0000000   64.00000  0.00%  16.6   11s

Cutting planes:
  Cover: 8
  Implied bound: 7
  Clique: 2
  MIR: 1
  Flow cover: 23
  Relax-and-lift: 5

Explored 8708 nodes (148825 simplex iterations) in 11.33 seconds
Thread count was 32 (of 32 available processors)

Solution count 10: 64 64.6667 64.75 ... 69

Optimal solution found (tolerance 1.00e-04)
Best objective 6.400000000000e+01, best bound 6.400000000000e+01, gap 0.0000%
